(set-logic QF_UF)
(declare-fun A0 () Bool)
(declare-fun A1 () Bool)
(declare-fun A2 () Bool)
(declare-fun A3 () Bool)
(declare-fun A4 () Bool)
(declare-fun A5 () Bool)
(declare-fun A6 () Bool)
(declare-fun A7 () Bool)
(declare-fun A8 () Bool)
(declare-fun A9 () Bool)
(declare-fun A10 () Bool)
(declare-fun A11 () Bool)
(declare-fun A13 () Bool)
(declare-fun A14 () Bool)
(declare-fun A15 () Bool)
(declare-fun A16 () Bool)
(declare-fun A17 () Bool)
(declare-fun A18 () Bool)
(declare-fun A19 () Bool)
(declare-fun A20 () Bool)
(declare-fun A21 () Bool)
(declare-fun A22 () Bool)
(declare-fun A23 () Bool)
(declare-fun A24 () Bool)
(assert (let ((.def_0 (or A15 A9))) (let ((.def_1 (not A18))) (let ((.def_2 (and A4 .def_1))) (let ((.def_3 (or .def_2 .def_0))) (let ((.def_4 (not .def_3))) (let ((.def_5 (not A1))) (let ((.def_6 (and A6 .def_5))) (let ((.def_7 (not .def_6))) (let ((.def_8 (or A4 .def_1))) (let ((.def_9 (or .def_8 .def_7))) (let ((.def_10 (and .def_9 .def_4))) (let ((.def_11 (not .def_10))) (let ((.def_12 (not A19))) (let ((.def_13 (not A16))) (let ((.def_14 (and .def_13 .def_12))) (let ((.def_15 (not .def_14))) (let ((.def_16 (not A13))) (let ((.def_17 (not A17))) (let ((.def_18 (or .def_17 .def_16))) (let ((.def_19 (not .def_18))) (let ((.def_20 (or .def_19 .def_15))) (let ((.def_21 (not .def_20))) (let ((.def_22 (not A7))) (let ((.def_23 (= A16 .def_22))) (let ((.def_24 (not A23))) (let ((.def_25 (and A3 .def_24))) (let ((.def_26 (not .def_25))) (let ((.def_27 (and .def_26 .def_23))) (let ((.def_28 (or .def_27 .def_21))) (let ((.def_29 (not .def_28))) (let ((.def_30 (or .def_29 .def_11))) (let ((.def_31 (not .def_30))) (let ((.def_32 (or A20 .def_22))) (let ((.def_33 (not .def_32))) (let ((.def_34 (or A2 A1))) (let ((.def_35 (not .def_34))) (let ((.def_36 (or .def_35 .def_33))) (let ((.def_37 (not .def_36))) (let ((.def_38 (= A13 A8))) (let ((.def_39 (not .def_38))) (let ((.def_40 (not A22))) (let ((.def_41 (and .def_40 A13))) (let ((.def_42 (or .def_41 .def_39))) (let ((.def_43 (or .def_42 .def_37))) (let ((.def_44 (not .def_43))) (let ((.def_45 (not A2))) (let ((.def_46 (and A8 .def_45))) (let ((.def_47 (not A5))) (let ((.def_48 (not A10))) (let ((.def_49 (or .def_48 .def_47))) (let ((.def_50 (not .def_49))) (let ((.def_51 (or .def_50 .def_46))) (let ((.def_52 (or A6 .def_1))) (let ((.def_53 (not A20))) (let ((.def_54 (not A6))) (let ((.def_55 (and .def_54 .def_53))) (let ((.def_56 (not .def_55))) (let ((.def_57 (and .def_56 .def_52))) (let ((.def_58 (not .def_57))) (let ((.def_59 (and .def_58 .def_51))) (let ((.def_60 (and .def_59 .def_44))) (let ((.def_61 (not .def_60))) (let ((.def_62 (or .def_61 .def_31))) (let ((.def_63 (or .def_17 .def_5))) (let ((.def_64 (not .def_63))) (let ((.def_65 (and .def_47 A24))) (let ((.def_66 (or .def_65 .def_64))) (let ((.def_67 (= A18 A5))) (let ((.def_68 (not .def_67))) (let ((.def_69 (not A8))) (let ((.def_70 (or .def_69 A14))) (let ((.def_71 (not .def_70))) (let ((.def_72 (or .def_71 .def_68))) (let ((.def_73 (not .def_72))) (let ((.def_74 (or .def_73 .def_66))) (let ((.def_75 (not .def_74))) (let ((.def_76 (or A14 .def_24))) (let ((.def_77 (= A11 A5))) (let ((.def_78 (not .def_77))) (let ((.def_79 (and .def_78 .def_76))) (let ((.def_80 (not .def_79))) (let ((.def_81 (or A10 A0))) (let ((.def_82 (and A19 A17))) (let ((.def_83 (not .def_82))) (let ((.def_84 (= .def_83 .def_81))) (let ((.def_85 (not .def_84))) (let ((.def_86 (or .def_85 .def_80))) (let ((.def_87 (and .def_86 .def_75))) (let ((.def_88 (and A4 A9))) (let ((.def_89 (or .def_5 .def_5))) (let ((.def_90 (and .def_89 .def_88))) (let ((.def_91 (not .def_90))) (let ((.def_92 (not A4))) (let ((.def_93 (or .def_45 .def_92))) (let ((.def_94 (not .def_93))) (let ((.def_95 (not A21))) (let ((.def_96 (and A22 .def_95))) (let ((.def_97 (not .def_96))) (let ((.def_98 (or .def_97 .def_94))) (let ((.def_99 (not .def_98))) (let ((.def_100 (or .def_99 .def_91))) (let ((.def_101 (not .def_100))) (let ((.def_102 (and .def_47 .def_47))) (let ((.def_103 (not A11))) (let ((.def_104 (= .def_103 A15))) (let ((.def_105 (not .def_104))) (let ((.def_106 (and .def_105 .def_102))) (let ((.def_107 (not .def_106))) (let ((.def_108 (and A6 A21))) (let ((.def_109 (not .def_108))) (let ((.def_110 (not A3))) (let ((.def_111 (and .def_110 A2))) (let ((.def_112 (= .def_111 .def_109))) (let ((.def_113 (or .def_112 .def_107))) (let ((.def_114 (or .def_113 .def_101))) (let ((.def_115 (and .def_114 .def_87))) (let ((.def_116 (not .def_115))) (let ((.def_117 (or .def_116 .def_62))) .def_117)))))))))))))))))))))))))))))))))))))))))))))))))))))))))))))))))))))))))))))))))))))))))))))))))))))))))))))))))))))))
(check-sat)
